Reproduction of the Original Problem/Instances/S2-10/S2-15-10-3-l.txt
     200      10    0.15
       3       1       1       2       3       2       3       3       1       1       5       8       6       8      11       0       7      13      10       2       5
       1       3       2       1       2       3       1       3       2       2      13       4       8      11       7      13      13      16       3      11       4
       2       1       1       2       3       3       1       3       2       1       4      15      10       0       2      11       8      14      16      12       7
       3       3       1       2       2       2       1       1       3       3      13      13      15      14       3      15      10      13       6      11       7
       3       3       3       3       1       3       3       3       2       3       3       2      10      12       9       6      14      11       0       5       7
       3       1       1       2       3       2       1       2       3       3      12       4       3       6      15       0      13       9       2      14       7
       1       1       1       2       3       2       2       3       1       3      16      11       0       6      11       5      10      13       6       1       4
       1       3       2       1       3       3       3       2       2       2       5      13       6      13       0      16      10      13       1       3       6
       1       1       1       2       1       2       1       1       1       1      14       8       9       3      13      10       4       9       7       1       4
       3       2       1       3       3       3       2       1       3       1      15       7       8       9       5       0       4      10      14       2       6
       2       3       2       2       3       3       2       2       3       1       2       5       0      11       3       0      12       4      16       6       5
       1       2       3       2       2       2       1       1       1       2       3      16       7       5       5      10      16       8       0       3       7
       3       3       2       3       1       1       3       2       3       1       9       7       9      13       1       8       0      15       1      12       4
       2       1       1       3       1       2       1       3       1       2      15       0       5      14       7       9       0      16       3      13       7
       1       2       1       1       2       3       2       2       1       3       6       0       6       5       0      11      10      11      16       8       5
       1       3       2       2       1       2       2       2       3       3      15      10       9       4       1       3      15      11      10       7       7
       1       3       1       2       3       2       1       1       3       2       8       2      15      14      12       5      14       9       4      10       4
       2       3       3       1       3       3       3       1       2       2       7      16      11       0      13       7       1       2       7       9       4
       2       2       2       2       2       1       2       1       2       1      11      11       8       8       4       6       9       6       4       5       6
       2       1       1       3       2       3       2       2       3       1       0      16       0      11       9       2       5       5       7       5       6
       2       3       2       2       2       2       1       3       1       2       1       7       0      14       1       2      16      11      13       6       6
       3       1       1       1       2       3       1       2       1       2       9      14      15       2       4      15      13       4       4       4       7
       3       1       1       2       1       3       3       1       2       2       7       0       7      15       1       0      10      16      15       5       7
       1       3       1       3       2       1       3       2       1       2       8      11       5      12       9       9      16      13      14       9       5
       3       3       3       3       2       2       1       1       2       3       1       1       4       6       0       2      16       5       7      16       5
       3       1       2       2       1       3       3       1       2       3      10       8       0      15       8       8      14      10      14       6       6
       3       2       1       2       1       1       1       2       2       1      12      11      14       5      10       1      11      10      16      12       4
       3       2       2       2       1       3       1       3       2       1      15      12      11       9      12       8      11       6       9      10       4
       1       1       3       2       1       3       1       3       2       3      11      10      11      10       0       4      10       0      10      10       7
       1       3       2       2       2       3       1       2       3       2       7      12       9       5      11       4      16      15      11       1       7
       2       1       1       2       3       3       2       2       2       2       0       6       5      15       0      10      10      10      13      15       4
       1       3       2       3       1       1       3       1       3       1       3      11       2      14       3       3      15       5       4       1       4
       2       1       2       1       2       2       2       2       3       2      12       4       8       4       3       1      10      16      15       1       7
       2       1       3       1       3       1       2       3       2       1       8      14      14       4      16      15       3      13      16       4       5
       2       2       2       2       2       1       1       2       1       2      14       8       5      11      11       5      11       5      13       1       4
       2       2       3       3       3       2       2       1       3       2       8       2      16       6       3      12      13      12       0       3       7
       3       1       1       2       3       2       3       3       3       2      13       1       7      13       4       8       9      13       0      16       7
       3       1       1       3       2       1       1       3       2       2      12       9       6       4       4       9       6      13      12       1       7
       1       1       1       2       3       2       2       2       3       1       4      13       9       5       0       9       0      10      11       8       6
       2       3       2       1       3       3       3       2       3       2      11      14       3       0      14      11       4      10       6       2       6
       1       2       1       1       2       2       1       3       3       3       9      12       6       7      10       0       1      15       6       0       7
       3       3       1       1       1       1       3       3       2       2       9       3       3      12       0       6      11       5      11       8       4
       2       3       1       2       3       3       2       3       3       1      11       5       4      15       5       9       2      12      16       6       7
       2       1       3       1       1       3       1       3       2       3       7       6       5      15      14       0       1       2       6      12       7
       3       3       3       1       3       2       2       3       2       1       2      15      10       9      15      14       7      12      11      14       7
       2       1       3       3       3       1       1       2       3       3      15       7       3       4      14       8      16       1      12       6       7
       1       1       3       1       2       1       2       1       1       2       6       0       1      10       9       3       1      15       6       5       6
       1       1       1       2       1       1       1       3       1       1      11       5       8      12      15       6       1      10      12       6       4
       3       1       2       2       1       3       1       1       3       3      16       1      15      10      12      12       6      11       3       5       6
       1       2       3       2       3       1       2       1       1       3      15       1      16       7       2       4      10      10       3       3       4
       2       1       2       3       2       2       1       3       2       3      13      14      12      13       4       7       4       6       9      10       5
       3       1       3       1       3       3       1       2       3       1       1      13       8       5      10       9      13      10       4      14       6
       1       2       1       1       2       1       3       3       3       2       1       9      11      13       9       1       8      11      16      16       7
       3       3       2       1       2       2       2       1       3       3       8      11      10      16       5      14      14       7       1       1       7
       2       2       2       3       2       2       1       1       1       1      15       1       3       8       3       1      11      10       8      12       5
       1       3       1       2       2       2       3       2       1       3      14      14       1      12      16       4      16       6       1       0       6
       2       1       3       3       1       2       3       2       1       1       4       8      11      14      10      11      12       5       8       7       4
       1       1       1       3       2       3       1       1       2       3      12       0      14      15       1      15       9      12      15       2       4
       1       2       2       3       1       3       1       3       2       1      15      11      11      13       0       1       3       7       9      14       5
       2       3       2       1       3       1       3       1       3       3       2      14       7      15       6      14       4      10      16       7       5
       3       1       2       3       3       2       1       1       2       1       1       1       4       9       8       2       7       8       5       5       4
       2       2       3       3       3       1       1       1       1       3       9       3       1      12       1       9      10      11       0      13       7
       1       2       3       3       2       3       1       1       3       2      14      14       4       4       8       6       9       4       2       0       6
       1       1       1       2       2       3       1       1       3       3       8      12       9       5       6       4      12      11       6      10       6
       1       2       3       2       3       3       2       1       2       1      10       7       0       0       7      12      11       9       4       0       6
       2       1       2       2       2       1       1       1       2       2      13       7       4      15       1       1       5       8       0      10       6
       1       3       1       1       2       1       1       2       2       3      12       1      10      15       2       3       5       1       9       1       6
       3       2       2       1       2       3       2       2       3       3       2      15       5      10      14      16       3      13      15       6       5
       2       3       2       3       1       3       2       1       2       2       6      10       4       4      11      15       6       7      10       3       7
       1       3       2       2       2       3       2       3       1       3       9       4      13       6       3       1       6      15       6       8       4
       2       2       1       1       3       2       1       1       2       3      10       1      16      13       0       9      12       5      14       4       6
       3       2       2       2       1       3       1       2       3       2       6      12       7       6      14       7       5       8       1       9       6
       2       2       3       3       1       1       1       2       1       2      10      15       8       9       8      13       9      13       2       6       4
       3       2       3       2       2       2       1       2       3       2      13       0      13       0       9       7      16      15      16       5       7
       3       2       1       3       1       2       3       2       2       2       8      11      12       4       7      15       2      12       1       7       5
       3       2       1       3       3       3       3       2       2       3       3      16      10      14      15       8       5       6       3       6       7
       2       1       1       3       3       3       2       1       1       1      16       7      14       6      10      10       5       0       6      15       5
       2       1       3       1       3       2       3       3       3       1       1       0      12      10      13       7      16      11       4      12       5
       3       3       1       2       3       2       3       3       3       1       1      14       5      13      10      12       5       9       1      11       6
       2       2       3       3       1       3       1       2       1       1       6       5      14      14       4      15      13       7       9      14       6
       2       1       2       2       2       2       2       2       2       1       4      12       0       4       9      13      11       7      15       7       4
       1       2       1       2       3       3       1       2       1       1       5      16      12       9      14       3       2       9       1      13       7
       1       1       1       2       2       1       1       1       3       3       1       2      16       7      16       2       0       0       5       1       4
       2       1       2       2       1       3       1       2       1       2       7      16       4       3      13       5       9       9       5      13       5
       3       1       2       3       2       2       3       2       2       3      12      16      14       6       0       5      13       0       2       3       5
       3       1       2       3       2       2       3       3       1       3      13       4      13      15       1      14       6      11       9      11       7
       1       1       1       1       2       3       1       1       3       3      11      15       4      13      16       8       4       8      13      14       5
       1       1       2       3       1       2       1       1       2       3      16      13       8      10       9       7       0      15       9       4       7
       2       2       3       2       1       3       2       3       1       1      14       0      13       6      16       2      16      12      13       6       5
       1       3       3       2       2       2       2       1       1       3       2      12       9       8       5       0       5      14      12       6       4
       3       3       3       2       2       3       3       2       1       3      11      15       2       9      14       5      14      11      11       0       4
       2       1       2       1       2       2       2       2       1       3      11       3       0      15      13      12       0      16       1      11       6
       3       1       2       1       3       2       3       2       3       3       6       5       7      13       0      16      12       8       1      12       5
       2       3       3       1       2       3       2       2       2       2       3       9       3      13       0       0       6       7       7       2       6
       3       1       1       3       2       2       2       2       2       2       5      11       9       2      15      16       1      11      15      10       7
       1       1       3       1       2       2       3       1       3       1      10       0       0       7       2      10       4       6       0       8       6
       1       3       2       3       3       1       1       3       1       3       4      14      16       4       1       7       6      12       3       1       5
       1       3       3       1       1       2       3       1       2       3      11       7       8       0       6       2       5       9       7       6       6
       2       3       1       1       1       1       1       1       3       3      10       7       5       9      10       0       0       5       5       9       5
       1       2       1       2       3       2       1       2       1       3       2       6      10      15       3       7      13       3      12      12       6
       2       1       3       3       2       2       1       3       2       3       7       7       6      16      16       8       3       6       7       3       6
       1       3       2       3       3       3       3       1       1       3       5      11      13      13       4       1       8       2       1      11       6
       2       1       3       2       3       3       1       2       1       2      15      10      13      15      14       0      13       2      12       3       7
       1       1       1       2       1       2       2       3       3       3      14       9      13       2       9      11       9      10      15       5       5
       2       2       1       3       1       1       3       2       2       1       9      16      11       7      11       7      12      16      13      14       4
       3       1       3       3       1       2       2       1       1       3       9      12       5       9       4      14       5       1       4       5       5
       2       1       3       1       1       3       1       3       1       2      10      13      15       6      13      13      15       5      14       0       5
       3       1       2       1       3       1       3       2       1       1       2      13      12       6       5       7       9      11       8      12       4
       1       3       3       1       3       1       2       1       1       3       7       8      12       6       3       2       4      16       3       6       7
       3       2       2       2       1       3       1       2       3       1      11      11      16       0      15       3      13      15      14      16       7
       2       1       1       3       1       2       2       2       3       2      16       2       0       3       8       5      15       3      14       7       6
       1       1       2       3       3       3       2       3       2       1      16       5       0      16       0       3      10      13      11       1       5
       3       2       1       3       2       2       1       2       2       1       0       4      11       1       9      10      15      11       9      14       7
       2       3       1       2       2       2       2       3       3       2       7       0       6       6       1       4      13       9       7      14       7
       2       2       2       1       2       2       2       1       3       2       2      13       3       2      12       4       8       2      12      12       4
       2       1       1       2       2       2       3       3       1       1      14      10       4      12      16       9       1      12       6       8       6
       1       1       1       1       1       3       3       1       1       2      12      11       5       9      12      12      13       0       3       7       5
       2       3       3       1       1       1       3       2       3       1       9       4       2       8       8       1       0      12       5       3       5
       3       3       3       1       3       1       1       2       3       3       8       8       3      10       3       2      12       8      16      11       6
       3       1       1       3       1       3       2       2       1       2       5       0      14       1      16       1       8       7       0       5       7
       2       1       3       2       2       2       1       2       2       3      16      12       8      15      14      15       6       3      11      15       5
       1       1       2       2       3       3       3       3       3       3       7       2       9      16      13      10       8       9       9      12       6
       2       3       3       2       1       1       1       3       2       3      10       7      16       6      14       8      14      13      13       1       7
       2       1       1       3       3       1       3       3       3       1      13       3       7       2       7       5       2       2      11       9       5
       1       2       3       1       3       2       1       1       1       3       8       2       4      13      11       5      13       1       3      16       6
       1       1       3       2       3       3       3       3       2       3       0      14       2       7       8      15       2      10      15       2       5
       3       2       1       1       3       1       3       1       2       3       5       3      10       6       3      16      16       8       4       7       4
       2       3       2       2       1       3       2       2       1       3      10       7       6      14      12       5       6      11      13       5       4
       1       1       3       1       3       1       2       3       2       1      10       9      12      12       3       3       6      15       4       2       5
       3       2       1       2       3       3       3       2       2       2       0       9      10      14      15       7       5       6      10       4       7
       3       3       2       3       3       2       3       2       2       1       8      10      16       3       1       8       5      12      11      11       4
       1       2       1       1       2       1       2       1       2       2       5      13      12       2       4      10       4      16      15      13       6
       1       2       1       2       2       3       2       1       2       1       9       6      10       2       2       4      14      14      12      15       5
       1       2       2       1       2       2       2       1       3       3       7       2      16       1       7       1       2       2       0       5       5
       3       1       2       1       2       1       3       2       1       2       0       3      16       4      15       8       5       2      12       0       7
       1       3       1       1       2       3       1       2       3       3      16      11       3       2       1       0       4      13      13       6       4
       2       1       3       3       2       2       2       3       2       1       1      11       2       6      16      12       1       7       2       7       6
       2       3       3       2       3       3       3       1       3       2       1       4      14      10       2       0      15       4       0      16       5
       2       2       2       2       3       2       1       3       3       2      11       1      14       2      10       8       5      11       3       8       4
       2       2       3       2       2       1       2       1       2       1       3       6      14       4      11       7      14       8       4       7       5
       2       1       3       1       1       3       1       3       1       3       8       6       0       2       0       3      12      14      10       0       4
       2       2       1       2       1       2       2       2       3       1       2       7       9       5      10       5       3       8      13      15       4
       3       2       2       2       2       1       1       2       3       2      12      10       5      12       6      16       3      14       3      15       6
       3       1       1       2       1       1       2       2       1       2       9       0      12      13       5       3      14      15      13      14       6
       3       2       2       1       1       3       1       2       1       1       9      16       6      11       3       6      11      14       6      14       5
       2       1       3       1       2       2       3       2       1       3       3       6       9       6       8       3      10       9      10      10       7
       2       3       3       1       1       1       1       1       2       1       2      15       6       7      12      11       6       6      16       8       5
       1       1       2       2       1       2       1       1       2       1       0       6       1       0      13       6      13       7      11       7       6
       3       1       3       3       1       2       2       2       2       3       0      11       3      11       5      16       4      13       3      12       6
       1       3       1       1       3       2       2       2       3       2      14      13       6       6       9      13       7       8       4       4       4
       2       1       3       1       1       1       1       2       1       1      14       0       5       8       8       5      16       0       0      13       6
       2       2       1       2       3       1       3       1       3       2       2      10      16       5      10       0      13      11      14       8       7
       2       3       2       1       3       2       3       1       2       1      16      15       1      13       2      13      10       9      15       5       7
       1       3       1       3       1       3       1       3       1       3       0       5       3       5      15      12       0      13       0       4       6
       1       2       3       1       1       3       2       3       1       2      15       1       6      14       3       0      13      12      16       6       4
       2       3       3       2       1       2       2       3       2       2      10      13      12       3       3       9      11       3      10       0       7
       2       3       2       2       1       1       2       3       3       1       8      15       3      10       1      12       6      12       9       7       5
       3       1       3       1       1       1       3       2       3       2      11       4      13      11       8      14       8       8      14       5       6
       2       3       3       2       3       1       2       1       2       3      15      11      13      14      16      14       1       8      13       2       5
       3       3       2       2       3       1       3       2       3       2       9       0      11       7       1       8       2      16      13       8       6
       1       1       3       2       3       3       1       2       2       1       6       9      16       8       9       4       5       3       8      11       5
       2       2       3       2       1       2       3       2       1       2       0      10      14      16       8       9      14       1      13       4       4
       1       2       1       1       2       3       3       1       3       1       6       4       7      14       1       4       3       9      10      10       4
       3       2       3       1       2       2       1       3       3       1       0       9       8       8       8      13      12      12      13       2       4
       2       1       3       3       2       3       1       2       1       1       5      15       9      10      15       4      15       9      11       5       6
       1       2       2       3       2       2       3       2       2       1      13      12       2       1       9       0       9      13       4      12       6
       2       1       2       2       2       2       2       2       3       3      12      16       3       2      15       0      15       5       8      15       4
       1       2       2       3       2       3       3       1       2       2       0       7       2      15       8       1       7      10       6      11       7
       3       1       1       1       3       2       1       1       1       1       4      13      10       4      15      13      15       7      13       1       6
       2       3       1       1       2       1       1       3       3       1       2       4       8       0       5       9       8      12      10       5       7
       2       2       2       2       2       3       2       3       2       1       0       2      16      12       0       1      10       9       9      13       6
       1       3       3       3       3       2       1       2       1       1      11       8       6      16       4      12       4      11      15       4       4
       3       1       3       1       2       1       1       2       3       2      13       5      15       8      13       3      11       7       5       7       4
       1       3       3       2       3       1       2       2       3       3      16       2      15      10       8      15       0      13       6       7       4
       3       3       2       2       3       1       2       2       1       1       9       9       3       5      12       3       0      14       6      16       6
       1       1       2       1       2       2       3       1       3       3      11       2      16       0      16      14       2      15       6      15       5
       2       1       1       1       1       3       1       3       2       1       0      10       7      11       6      16       0       4       0      16       4
       2       3       1       2       2       2       2       1       2       3      10      13      11       4      16       0       5       2      14       7       7
       2       2       1       2       3       1       2       3       1       2       8      11       6       3       2       3       4      12       1       7       7
       1       2       3       3       1       1       3       2       1       1      11       3      16       2       1       8       0       7       0      16       5
       1       2       1       3       2       3       2       1       2       3      14       3       4       2      11       2       0       2       8       4       4
       2       3       3       1       2       1       3       2       2       1      10       4       5      13      15       0      12       7       7       9       4
       3       3       3       1       1       1       1       2       3       1       4      15      12      15      14       7      14      10       0       4       7
       3       1       2       3       3       3       3       3       2       3       0       0       6       0      15       6      13       8      13       6       6
       1       2       2       1       3       3       1       2       3       1       9       6      15      13       5       4      13       7       8       5       7
       1       3       1       2       1       2       1       2       2       2      11       4      16      15       8       7      13       5       1      13       4
       3       3       2       3       3       3       3       3       2       3       0       8      11      15      14      10       7      10       2      15       4
       2       1       1       1       3       2       3       2       2       2       6      16       1      15       0       2       9       5       4       5       7
       1       1       3       1       2       2       1       1       3       3       7      12       4       3      14       8      13       0       5      16       4
       3       2       2       3       2       3       2       3       1       1       9       1       7       8      12       5      10       2      11       1       6
       2       3       1       3       1       3       2       3       1       3      15       1      12       0       0      11       3       1       1       8       6
       1       1       3       3       3       2       2       2       2       2       8       2       8       2       7      13       0       6      11       2       7
       3       1       3       1       3       1       3       2       2       2      12       0       1      13      15      11      11       9      11       1       5
       3       2       3       2       1       2       1       3       3       1      14      10      14      11      16      13       1       3      11       7       5
       2       1       1       2       3       1       1       1       1       2       8       9      12       6       6       2       5      14       2      11       6
       2       3       1       1       2       3       1       1       2       3       1      10       8      12       7       0      11       7       4       5       5
       3       2       3       3       3       2       2       1       1       3       6       9       5       6       6      13       0      11      10       6       4
       1       1       3       2       3       1       3       2       1       1      16      10       1      14      13      11       8       4       9       8       7
       1       2       3       3       3       3       1       2       2       3      11      10      16       7       0      12      13      16       8       8       7
       1       3       1       3       3       3       1       2       3       3       8      11      15       8       8       8      11       3       2      11       5
     115     154     126     117     132     178     183     134     176     169
     221     221     221     221     442     442     221     221     442     442
     329    1059     647     389     367     600     806    1147     775     755