Reproduction of the Original Problem/results-log/S2-10/S2-15-10-3-l.log
CPXPARAM_Read_DataCheck                          1
Found incumbent of value 0.000000 after 0.00 sec. (0.05 ticks)
Tried aggregator 1 time.
MIP Presolve eliminated 4 rows and 0 columns.
MIP Presolve modified 1 coefficients.
Reduced MIP has 227 rows, 2010 columns, and 9230 nonzeros.
Reduced MIP has 2010 binaries, 0 generals, 0 SOSs, and 0 indicators.
Presolve time = 0.00 sec. (3.55 ticks)
Probing time = 0.00 sec. (1.60 ticks)
Tried aggregator 1 time.
Reduced MIP has 227 rows, 2010 columns, and 9230 nonzeros.
Reduced MIP has 2010 binaries, 0 generals, 0 SOSs, and 0 indicators.
Presolve time = 0.00 sec. (3.97 ticks)
Probing time = 0.02 sec. (1.60 ticks)
Clique table members: 2000.
MIP emphasis: balance optimality and feasibility.
MIP search method: dynamic search.
Parallel mode: deterministic, using up to 4 threads.
Root relaxation solution time = 0.00 sec. (7.86 ticks)

        Nodes                                         Cuts/
   Node  Left     Objective  IInf  Best Integer    Best Bound    ItCnt     Gap

*     0+    0                            0.0000    12487.0000              --- 
*     0+    0                         2125.0000    12487.0000           487.62%
      0     0     6700.2233    11     2125.0000     6700.2233      496  215.30%
      0     0     5257.9278   207     2125.0000     Cuts: 156     1128  147.43%
*     0+    0                         3934.0000     5257.9278            33.65%
      0     0        cutoff           3934.0000     3934.0000     1741    0.00%
Elapsed time = 0.20 sec. (150.57 ticks, tree = 0.01 MB, solutions = 3)

Clique cuts applied:  264
Cover cuts applied:  2
Mixed integer rounding cuts applied:  20
Zero-half cuts applied:  6

Root node processing (before b&c):
  Real time             =    0.20 sec. (150.71 ticks)
Parallel b&c, 4 threads:
  Real time             =    0.00 sec. (0.00 ticks)
  Sync time (average)   =    0.00 sec.
  Wait time (average)   =    0.00 sec.
                          ------------
Total (root+branch&cut) =    0.20 sec. (150.71 ticks)
